0 894 
1 886 
2 874 
3 866 
4 862 
5 850 
6 842 
7 834 
8 826 
9 820 
10 816 
11 806 
12 802 
13 802 
14 796 
15 784 
16 776 
17 776 
18 774 
19 774 
20 758 
21 758 
22 742 
23 730 
24 726 
25 722 
26 702 
27 698 
28 694 
29 684 
30 678 
31 676 
32 664 
33 654 
34 652 
35 642 
36 638 
37 634 
38 626 
39 618 
40 616 
41 608 
42 600 
43 598 
44 598 

